p wcnf 169 84 85 
1 127 -153 0 
1 113 141 0 
1 39 -147 0 
1 42 117 0 
1 -97 -57 0 
1 -97 125 0 
1 -1 57 0 
1 112 -3 0 
1 -62 -26 0 
1 158 76 0 
1 -127 -66 0 
1 72 65 0 
1 -54 44 0 
1 50 -47 0 
1 143 -77 0 
1 -89 42 0 
1 -128 -19 0 
1 -99 -34 0 
1 -107 141 0 
1 -51 -64 0 
1 142 -12 0 
1 -96 131 0 
1 60 -139 0 
1 7 3 0 
1 -57 -26 0 
1 16 17 0 
1 84 145 0 
1 -127 -34 0 
1 36 -42 0 
1 74 -154 0 
1 10 -147 0 
1 161 78 0 
1 -141 -123 0 
1 -44 -95 0 
1 47 106 0 
1 135 157 0 
1 -58 -86 0 
1 -116 111 0 
1 164 77 0 
1 -63 -153 0 
1 -28 -126 0 
1 52 114 0 
1 27 66 0 
1 -82 97 0 
1 -58 -103 0 
1 -59 -169 0 
1 79 -138 0 
1 24 69 0 
1 -87 -35 0 
1 48 85 0 
1 80 -108 0 
1 -159 -156 0 
1 -19 57 0 
1 -153 128 0 
1 -145 -125 0 
1 -142 -117 0 
1 -136 147 0 
1 -127 -132 0 
1 -11 -156 0 
1 -144 -82 0 
1 52 -10 0 
1 53 -24 0 
1 -117 135 0 
1 140 1 0 
1 -90 -159 0 
1 -124 74 0 
1 107 150 0 
1 -66 -122 0 
1 -124 -53 0 
1 -109 -89 0 
1 89 -47 0 
1 62 -105 0 
1 -102 60 0 
1 -125 -106 0 
1 -19 88 0 
1 123 31 0 
1 -114 93 0 
1 -61 131 0 
1 150 54 0 
1 -91 75 0 
1 -132 -138 0 
1 -5 -63 0 
1 -95 -164 0 
1 -141 -163 0 
